************************************************************************
file with basedata            : md383_.bas
initial value random generator: 301299758
************************************************************************
projects                      :  1
jobs (incl. supersource/sink ):  22
horizon                       :  155
RESOURCES
  - renewable                 :  2   R
  - nonrenewable              :  2   N
  - doubly constrained        :  0   D
************************************************************************
PROJECT INFORMATION:
pronr.  #jobs rel.date duedate tardcost  MPM-Time
    1     20      0       29       14       29
************************************************************************
PRECEDENCE RELATIONS:
jobnr.    #modes  #successors   successors
   1        1          3           2   3   4
   2        3          3           5  14  19
   3        3          3          12  16  20
   4        3          3           7   9  10
   5        3          3           6   8  11
   6        3          2           7  12
   7        3          2          13  16
   8        3          1          10
   9        3          3          13  15  19
  10        3          2          13  21
  11        3          3          12  16  20
  12        3          1          15
  13        3          1          20
  14        3          2          15  17
  15        3          1          18
  16        3          2          17  18
  17        3          1          21
  18        3          1          21
  19        3          1          22
  20        3          1          22
  21        3          1          22
  22        1          0        
************************************************************************
REQUESTS/DURATIONS:
jobnr. mode duration  R 1  R 2  N 1  N 2
------------------------------------------------------------------------
  1      1     0       0    0    0    0
  2      1     4       5    8    5    3
         2     7       5    7    4    2
         3    10       5    6    3    2
  3      1     3       7   10    6    7
         2     6       6   10    5    6
         3     7       6    9    4    5
  4      1     1       6    9    9    6
         2     1      10    8    9    7
         3     7       4    4    7    6
  5      1     1       4    9    8    7
         2     1       5    7    8    6
         3    10       2    5    7    3
  6      1     2       6   10    7    8
         2     4       5    9    5    6
         3     7       4    8    3    4
  7      1     1      10    5    7   10
         2     5       6    4    3    7
         3     6       3    3    1    6
  8      1     5       5   10    8    6
         2     5       5    8    9    7
         3    10       3    6    6    3
  9      1     4       5    4    5    8
         2     5       5    3    4    8
         3    10       3    1    4    8
 10      1     1       9   10    6    8
         2     5       6    9    6    4
         3     5       6    8    5    6
 11      1     8       7   10    6    3
         2    10       5    8    3    1
         3    10       3    8    3    3
 12      1     8       8    7    8    7
         2    10       6    7    7    6
         3    10       7    7    6    6
 13      1     2       5    2    9    9
         2     4       5    1    8    9
         3     5       5    1    7    6
 14      1     2       6    6    8    5
         2     8       5    3    5    4
         3    10       2    2    1    3
 15      1     1       4    9    4    9
         2     3       4    7    3    8
         3     8       3    5    1    8
 16      1     6       6    6    7    7
         2     7       6    5    6    7
         3    10       1    3    1    5
 17      1     2       1    6    6    7
         2     3       1    4    6    5
         3     6       1    4    6    2
 18      1     2       8    7    6    9
         2     3       8    5    6    4
         3     4       5    4    4    3
 19      1     2       8    4    4    5
         2     4       7    4    4    4
         3     7       7    2    4    2
 20      1     3       8    9    8    7
         2     4       7    6    6    5
         3     6       7    5    5    5
 21      1     5       4    5    5    5
         2     7       4    4    1    5
         3     7       4    3    2    5
 22      1     0       0    0    0    0
************************************************************************
RESOURCEAVAILABILITIES:
  R 1  R 2  N 1  N 2
   26   32  133  138
************************************************************************
MAXIMAL LAGS:
from  to  type  delay
    1   12   ES      0
    1    2   ES      0
    2   12   ES      0
    1    3   ES      0
    3   12   ES      0
    1    4   ES      0
    4   12   ES      0
    1    5   ES      0
    5   12   ES      0
    1    6   ES      0
    6   12   ES      0
    1    7   ES      0
    7   12   ES      0
    1    8   ES      0
    8   12   ES      0
    1    9   ES      0
    9   12   ES      0
    1   10   ES      0
   10   12   ES      0
    1   11   ES      0
   11   12   ES      0
    1   12   ES      0
    2    5   SS      3
    2    5   SE     -3
    2    5   ES      6
    2    5   EE      1
    2   14   SS      8
    2   14   SE      4
    2   14   ES      2
    2   14   EE     -2
    2   19   SS      2
    2   19   SE     -3
    2   19   ES      8
    2   19   EE     11
    3   16   SS     -3
    3   16   SE      1
    3   16   ES     10
    3   16   EE     -2
    3   20   SS     -3
    3   20   SE     10
    3   20   ES     -4
    3   20   EE      5
    4    7   SS     -8
    4    7   SE     -9
    4    7   ES      4
    4    7   EE      3
    4    9   SS     -6
    4    9   SE      7
    4    9   ES      5
    4    9   EE      9
    4   10   SS     -7
    4   10   SE     -9
    4   10   ES     12
    4   10   EE     -8
    5    6   SS     -2
    5    6   SE     -2
    5    6   ES      4
    5    6   EE      5
    5    8   SS      3
    5    8   SE      3
    5    8   ES     -4
    5    8   EE    -11
    5   11   SS     12
    5   11   SE     -1
    5   11   ES    -11
    5   11   EE     -6
    6    7   SS     12
    6    7   SE    -10
    6    7   ES     -2
    6    7   EE    -10
    7   13   SS     -6
    7   13   SE     -3
    7   13   ES     12
    7   13   EE      9
    7   16   SS      0
    7   16   SE     -1
    7   16   ES    -11
    7   16   EE      5
    8   10   SS     10
    8   10   SE      9
    8   10   ES      1
    8   10   EE     -2
    9   13   SS     10
    9   13   SE      1
    9   13   ES      7
    9   13   EE      6
    9   15   SS      1
    9   15   SE     10
    9   15   ES     11
    9   15   EE     -5
    9   19   SS      5
    9   19   SE      3
    9   19   ES     -4
    9   19   EE     -3
   10   13   SS      3
   10   13   SE      3
   10   13   ES    -10
   10   13   EE     -5
   10   21   SS     -3
   10   21   SE    -10
   10   21   ES     -7
   10   21   EE     -2
   11   16   SS     11
   11   16   SE     -5
   11   16   ES      8
   11   16   EE      4
   11   20   SS     10
   11   20   SE     12
   11   20   ES      8
   11   20   EE     -5
   12   15   SS     -4
   12   15   SE    -10
   12   15   ES    -12
   12   15   EE      1
   13   20   SS     -1
   13   20   SE     12
   13   20   ES      2
   13   20   EE     -8
   14   15   SS      7
   14   15   SE     11
   14   15   ES     11
   14   15   EE      7
   14   17   SS      2
   14   17   SE      1
   17   14   SE      0
   14   17   ES      0
   14   17   EE     -1
   15   18   SS      1
   15   18   SE     12
   15   18   ES     -7
   15   18   EE     10
   16   17   SS     12
   16   17   SE    -11
   16   17   ES      1
   16   17   EE      3
   16   18   SS      8
   16   18   SE    -11
   16   18   ES     -5
   16   18   EE      7
   17   21   SS     -5
   17   21   SE     -6
   17   21   ES      0
   17   21   EE      2
   18   21   SS      9
   18   21   SE      3
   18   21   ES      2
   18   21   EE     -4
   19   22   SS     -3
   19   22   SE     -9
   19   22   ES    -11
   19   22   EE     11
   20   22   SS      9
   20   22   SE      5
   20   22   ES     -4
   20   22   EE     -6
   21   22   SS      6
   21   22   SE      3
   21   22   ES     -9
   21   22   EE     11
************************************************************************
